\ Model Cl_45_Ins_8.lp
\ LP format - for model browsing. Use MPS format to capture full model detail.
Maximize
 
Subject To
 obj1: y[0] = 0
 obj2: y[1] = 0
 obj1_Exp: - y[0] + 97 x[0] + 96 x[1] + 95 x[2] + 93 x[3] + 88 x[4]
   + 88 x[5] + 87 x[6] + 81 x[7] + 81 x[8] + 80 x[9] + 74 x[10] + 69 x[11]
   + 68 x[12] + 66 x[13] + 66 x[14] + 64 x[15] + 61 x[16] + 60 x[17]
   + 59 x[18] + 58 x[19] + 57 x[20] + 56 x[21] + 56 x[22] + 52 x[23]
   + 51 x[24] + 49 x[25] + 46 x[26] + 45 x[27] + 37 x[28] + 36 x[29]
   + 35 x[30] + 35 x[31] + 33 x[32] + 30 x[33] + 30 x[34] + 18 x[35]
   + 18 x[36] + 16 x[37] + 14 x[38] + 12 x[39] + 7 x[40] + 7 x[41]
   + 5 x[42] + 3 x[43] + 2 x[44] = 0
 obj2_Exp: - y[1] + 87 x[0] + 43 x[1] + 89 x[2] + 55 x[3] + 47 x[4]
   + 18 x[5] + x[6] + 45 x[7] + 62 x[8] + 77 x[9] + 36 x[10] + 33 x[11]
   + 48 x[12] + 44 x[13] + 56 x[14] + 3 x[15] + 39 x[16] + 14 x[17]
   + 61 x[18] + 85 x[19] + 90 x[20] + 32 x[21] + x[22] + 51 x[23]
   + 62 x[24] + 74 x[25] + 38 x[26] + 29 x[27] + 94 x[28] + 32 x[29]
   + 17 x[30] + 56 x[31] + 45 x[32] + 33 x[33] + 72 x[34] + 93 x[35]
   + 68 x[36] + 11 x[37] + 99 x[38] + 24 x[39] + 8 x[40] + 49 x[41]
   + 50 x[42] + 66 x[43] + 20 x[44] = 0
 Budget: 107 x[0] + 106 x[1] + 105 x[2] + 103 x[3] + 98 x[4] + 98 x[5]
   + 97 x[6] + 91 x[7] + 91 x[8] + 90 x[9] + 84 x[10] + 79 x[11] + 78 x[12]
   + 76 x[13] + 76 x[14] + 74 x[15] + 71 x[16] + 70 x[17] + 69 x[18]
   + 68 x[19] + 67 x[20] + 66 x[21] + 66 x[22] + 62 x[23] + 61 x[24]
   + 59 x[25] + 56 x[26] + 55 x[27] + 47 x[28] + 46 x[29] + 45 x[30]
   + 45 x[31] + 43 x[32] + 40 x[33] + 40 x[34] + 28 x[35] + 28 x[36]
   + 26 x[37] + 24 x[38] + 22 x[39] + 17 x[40] + 17 x[41] + 15 x[42]
   + 13 x[43] + 12 x[44] <= 1015
Bounds
Binaries
 x[0] x[1] x[2] x[3] x[4] x[5] x[6] x[7] x[8] x[9] x[10] x[11] x[12] x[13]
 x[14] x[15] x[16] x[17] x[18] x[19] x[20] x[21] x[22] x[23] x[24] x[25]
 x[26] x[27] x[28] x[29] x[30] x[31] x[32] x[33] x[34] x[35] x[36] x[37]
 x[38] x[39] x[40] x[41] x[42] x[43] x[44]
Generals
 y[0] y[1]
End
